p edge 50 122
e 1 23
e 1 24
e 1 29
e 1 50
e 2 28
e 2 32
e 2 35
e 2 44
e 2 46
e 2 50
e 3 31
e 3 38
e 3 44
e 3 45
e 3 46
e 4 7
e 4 26
e 4 44
e 5 7
e 5 10
e 5 39
e 5 44
e 6 29
e 6 36
e 6 46
e 7 8
e 7 24
e 7 25
e 7 39
e 7 41
e 7 42
e 8 10
e 8 21
e 8 32
e 8 47
e 9 22
e 9 29
e 9 33
e 9 38
e 9 47
e 10 12
e 10 14
e 10 15
e 10 19
e 10 45
e 10 47
e 11 24
e 12 24
e 12 43
e 13 27
e 13 28
e 13 42
e 14 29
e 14 40
e 14 42
e 14 44
e 14 48
e 15 25
e 15 26
e 15 45
e 16 22
e 16 33
e 16 37
e 16 46
e 17 20
e 17 29
e 17 31
e 17 46
e 18 24
e 18 34
e 18 42
e 19 20
e 19 23
e 19 28
e 19 40
e 19 47
e 20 29
e 20 32
e 20 49
e 21 28
e 21 34
e 21 36
e 21 43
e 21 45
e 22 50
e 23 26
e 23 31
e 23 37
e 24 48
e 25 29
e 25 31
e 25 44
e 25 49
e 26 31
e 27 28
e 27 32
e 27 46
e 27 48
e 28 37
e 28 45
e 28 46
e 29 32
e 29 46
e 30 37
e 31 47
e 31 49
e 32 36
e 32 40
e 32 44
e 32 46
e 33 40
e 33 44
e 34 46
e 36 50
e 39 44
e 39 47
e 40 44
e 42 44
e 42 48
e 43 48
e 45 47
e 46 49
